NumGames = 8;
NumReferees = 24;
NumFields = 2;
game_id = [3568, 3571, 3572, 3573, 3574, 3575, 3576, 3577];
game_start = [870, 600, 600, 690, 690, 780, 780, 870];
game_end = [990, 720, 720, 810, 810, 900, 900, 990];
difficulty = [1, 1, 1, 1, 1, 1, 1, 1];
game_field = [1, 2, 1, 2, 1, 2, 1, 2];
referee_id = [1206, 2468, 3256, 3260, 3261, 3263, 3276, 3372, 3517, 3524, 3533, 3534, 3539, 7485, 7486, 7494, 7496, 7503, 7506, 7533, 7540, 7552, 7568, 7571];
main_exp = [277, 124, 45, 147, 36, 135, 7, 0, 34, 12, 31, 4, 12, 0, 14, 1, 0, 18, 1, 6, 0, 1, 9, 0];
assist_exp = [151, 81, 51, 99, 66, 101, 13, 3, 14, 61, 43, 23, 97, 29, 66, 12, 15, 59, 42, 24, 6, 8, 0, 8];
available_slots = array3d(1..NumReferees, 1..3, 1..2,[
  600,720, 780,900, 0,0,
  0,900, 0,0, 0,0,
  570,720, 0,0, 0,0,
  0,1440, 0,0, 0,0,
  600,900, 0,0, 0,0,
  0,1440, 0,0, 0,0,
  -300,1140, 0,0, 0,0,
  780,1080, 0,0, 0,0,
  840,1090, 0,0, 0,0,
  0,1440, 0,0, 0,0,
  0,1440, 0,0, 0,0,
  840,1020, 0,0, 0,0,
  0,1440, 0,0, 0,0,
  0,1440, 0,0, 0,0,
  0,1440, 0,0, 0,0,
  660,1260, 0,0, 0,0,
  0,1440, 0,0, 0,0,
  0,1440, 0,0, 0,0,
  0,1440, 0,0, 0,0,
  0,1440, 0,0, 0,0,
  870,990, 0,0, 0,0,
  600,840, 0,0, 0,0,
  0,1440, 0,0, 0,0,
  0,720, 0,0, 0,0,
]);